# - - - - - - - - - - - - - - - - - - - - - - - - - - - - - - - - - - - - - -
# - - - - - - - - - - - - - - - - BSPar1.txt- - - - - - - - - - - - - - - - -
#
# A txt description of a BlockSolverConfig for a
# CapacitatedFacilityLocationBlock to be solved by a *MILPSolver (either to
# integer optimality or the continuous relaxation) with the use of the strong
# forcing constraints
#
#   Antonio Frangioni
#
# - - - - - - - - - - - - - - - - - - - - - - - - - - - - - - - - - - - - - -
# - - - - - - - - - - - - - - - - - - - - - - - - - - - - - - - - - - - - - -

BlockSolverConfig     # exact type of the Configuration object

1  # the BlockSolverConfig is a "differential" one

1  # number of (the names of) Solver in this BlockSolverConfig
# now all the names of the Solver - - - - - - - - - - - - - - - - - - - - - -
CPXMILPSolver           # name of 1st Solver

1  # number of ComputeConfig in this BlockSolverConfig

# now all the ComputeConfig
# 1st ComputeConfig - - - - - - - - - - - - - - - - - - - - - - - - - - - - -
# ComputeConfig of the *MILPSolver

ComputeConfig # exact type of the ComputeConfig object

1  # f_diff == 0 ==> all non-provided parameters are set to the default value
   # f_diff == 1 ==> all non-provided parameters are not changed

14  # number of integer parameters

# now all the integer parameters
#intLogVerb      10               # log verbosity of the MILPSolver
CPXPARAM_ScreenOutput   1       # no output on screen
CPXPARAM_Threads 1              # avoid parallel
# never change the following to 1, since solving the integer program
# (albeit at the root node only) is required to have the strong forcing
# constraints separated Cplex
intRelaxIntVars 0    # nonzero if the continuous relaxation is solved
# if the optimal integer solution is required, consider changing the
# following to 3 (separate user cuts at the root node & every other node),
# although this is not 100% guaranteed to be better
intCutSepPar    1    # separate user cuts at the root node only
# if the optimal integer solution is required, comment out the next stuff
CPXPARAM_MIP_Limits_Nodes 0             # only do root node
CPXPARAM_MIP_Limits_EachCutLimit 0      # disable all standard cuts but Gomory
CPXPARAM_MIP_Cuts_Gomory -1             # (separately) disable Gomory cuts
CPXPARAM_MIP_Cuts_LiftProj -1           # (separately) disable L&P cuts
CPXPARAM_MIP_Strategy_HeuristicFreq -1  # disable heuristic
CPXPARAM_MIP_Strategy_HeuristicEffort 0 # disable heuristic
CPXPARAM_MIP_Strategy_RINSHeur -1       # disable RINS
CPXPARAM_MIP_Strategy_FPHeur -1         # disable FP
CPXPARAM_MIP_Display 2  # more verbose log
#CPXPARAM_LPMethod 3  # network algorithm
#!!
CPXPARAM_MIP_Pool_Capacity 0

3 # number of double parameters

# now all the double parameters
#dblMaxTime 60   # max time: 1 minute
#!!
CPXPARAM_MIP_Tolerances_Integrality 0
#!!
CPXPARAM_MIP_Tolerances_AbsMIPGap 1e-12
#!!
CPXPARAM_MIP_Tolerances_MIPGap 1e-12


0 # number of string parameters

# now all the string parameters
#strOutputFile	cfl1.lp
# [none]

# note that we could eof() the file here since the rest is all empty

0 # number of vector-of-int parameters

# now all the vector-of-int parameters
# [none]

0 # number of vector-of-double parameters

# now all the vector-of-double parameters
# [none]

0 # number of vector-of-string parameters

# now all the vector-of-string parameters
# [none]

# pointer to the "extra" Configuration
* # [none]

# end of 1st ComputeConfig- - - - - - - - - - - - - - - - - - - - - - - - - -

# end of BlockSolverConfig- - - - - - - - - - - - - - - - - - - - - - - - - -

# - - - - - - - - - - - - - - - - - - - - - - - - - - - - - - - - - - - - - -
# - - - - - - - - - - - - - - - - END BSPar1.txt- - - - - - - - - - - - - - -
# - - - - - - - - - - - - - - - - - - - - - - - - - - - - - - - - - - - - - -
